&BANDS
  prefix = 'nbn',
  outdir = './tmp',
  lsym   = .false.
/
