 &control
  calculation = 'bands',
  !restart_mode = 'restart',
  prefix       = 'nbn',
  pseudo_dir   = '../../pseudo',
  outdir       = './tmp',
!  etot_conv_thr = 1.0d-4
!  forc_conv_thr = 1.0d-3
  tprnfor = .true.,
  tstress = .true.  
 /
 &system    
  ibrav        = 2,
  celldm(1)    = 8.280483775939407
  nat          = 2,
  ntyp         = 2,
  ecutwfc      = 80,
  smearing     = 'mv'
  occupations  = 'smearing'
  degauss      = 0.010
  nbnd = 20
 /
 &electrons
  diagonalization = 'david'
  mixing_mode     = 'plain'
  mixing_beta     = 0.7
  conv_thr        = 1.0d-12
!  tqedft = .true.
 /
 &ions
!  ion_dynamics = 'damp'
 /
 &cell
!  cell_dynamics = 'damp-pr'
!  press_conv_thr = 0.001
 / 
 ATOMIC_SPECIES
 N  14.00670 N-pseudodojo-ncsr-pbesol.upf
 Nb 92.90638 Nb-pseudodojo-ncsr-pbesol.upf
 ATOMIC_POSITIONS crystal
 N       0.000000000   0.000000000   0.000000000
 Nb      0.500000000   0.500000000   0.500000000
K_POINTS crystal_b
11
 0.000   0.000   0.000   50  ! G
 0.500   0.500   0.000   50  ! X
 0.750   0.500   0.250   50  ! W
 0.750   0.375   0.375   50  ! K
 0.000   0.000   0.000   50  ! G
 0.500   0.500   0.500   50  ! L
 0.625   0.625   0.250   50  ! U
 0.750   0.500   0.250   50  ! W
 0.500   0.500   0.500   50  ! L
 0.750   0.375   0.375   50  ! K
 0.500   0.500   0.000   50  ! X
!PHOTONS EV
!3
!  6e-2   1e-1   1   0   0
!  6e-2   1e-1   0   1   0
!  6e-2   1e-1   0   0   1
