&control
    prefix='nbn',
    calculation='migdal_eliashberg',
    read_dumped_gr=.true.,
 &end
 &electrons
    theta=10.0,
    ef_from_input=.false.,
    thr_compute_k=100.0,
 &end
&phonons
    nq1=8,
    nq2=8,
    nq3=8,
  &end
  &input_migdal
    initialize='step',
    gap_threshold=0.1,
    sigma_me=0.010,
    ME_Fermi_thickness=0.05,
    mustar=0.16,
    nmatsu=64,
    nitermax=30,
    alpha_mix_me=0.5,
    gap_init=4.0,
  &end
nkfs
40 40 40
48
