&control
     read_dumped_gr=.true.
     prefix='nbn',
     verbosity='high',
     calculation='phonon_frequency_NA',
     freq_min=5e-04,
     broad_min=0.01,
    diff_start_file="./0.3000002epiq.in"
&end
&electrons
     ngauss=1,
     sigma_min=0.18,
     sigma_max=0.18,
     nsigma=1,
     ef_from_input=.false.,
    thr_compute_k=1000.0,
&end
&phonons
     acoustic_sum_rule=.false.
     write_dyn=.true.
     read_modes=.false.,
     nq1=8,
     nq2=8,
     nq3=8,
&end
k-points
automatic
24 24 24 0 0 0
q-points
crystal
4096
  0.00000000  0.00000000  0.00000000  1
  0.00000000  0.00000000  0.06250000  1
  0.00000000  0.00000000  0.12500000  1
  0.00000000  0.00000000  0.18750000  1
  0.00000000  0.00000000  0.25000000  1
  0.00000000  0.00000000  0.31250000  1
  0.00000000  0.00000000  0.37500000  1
  0.00000000  0.00000000  0.43750000  1
  0.00000000  0.00000000  0.50000000  1
  0.00000000  0.00000000  0.56250000  1
  0.00000000  0.00000000  0.62500000  1
  0.00000000  0.00000000  0.68750000  1
  0.00000000  0.00000000  0.75000000  1
  0.00000000  0.00000000  0.81250000  1
  0.00000000  0.00000000  0.87500000  1
  0.00000000  0.00000000  0.93750000  1
  0.00000000  0.06250000  0.00000000  1
  0.00000000  0.06250000  0.06250000  1
  0.00000000  0.06250000  0.12500000  1
  0.00000000  0.06250000  0.18750000  1
  0.00000000  0.06250000  0.25000000  1
  0.00000000  0.06250000  0.31250000  1
  0.00000000  0.06250000  0.37500000  1
  0.00000000  0.06250000  0.43750000  1
  0.00000000  0.06250000  0.50000000  1
  0.00000000  0.06250000  0.56250000  1
  0.00000000  0.06250000  0.62500000  1
  0.00000000  0.06250000  0.68750000  1
  0.00000000  0.06250000  0.75000000  1
  0.00000000  0.06250000  0.81250000  1
  0.00000000  0.06250000  0.87500000  1
  0.00000000  0.06250000  0.93750000  1
  0.00000000  0.12500000  0.00000000  1
  0.00000000  0.12500000  0.06250000  1
  0.00000000  0.12500000  0.12500000  1
  0.00000000  0.12500000  0.18750000  1
  0.00000000  0.12500000  0.25000000  1
  0.00000000  0.12500000  0.31250000  1
  0.00000000  0.12500000  0.37500000  1
  0.00000000  0.12500000  0.43750000  1
  0.00000000  0.12500000  0.50000000  1
  0.00000000  0.12500000  0.56250000  1
  0.00000000  0.12500000  0.62500000  1
  0.00000000  0.12500000  0.68750000  1
  0.00000000  0.12500000  0.75000000  1
  0.00000000  0.12500000  0.81250000  1
  0.00000000  0.12500000  0.87500000  1
  0.00000000  0.12500000  0.93750000  1
  0.00000000  0.18750000  0.00000000  1
  0.00000000  0.18750000  0.06250000  1
  0.00000000  0.18750000  0.12500000  1
  0.00000000  0.18750000  0.18750000  1
  0.00000000  0.18750000  0.25000000  1
  0.00000000  0.18750000  0.31250000  1
  0.00000000  0.18750000  0.37500000  1
  0.00000000  0.18750000  0.43750000  1
  0.00000000  0.18750000  0.50000000  1
  0.00000000  0.18750000  0.56250000  1
  0.00000000  0.18750000  0.62500000  1
  0.00000000  0.18750000  0.68750000  1
  0.00000000  0.18750000  0.75000000  1
  0.00000000  0.18750000  0.81250000  1
  0.00000000  0.18750000  0.87500000  1
  0.00000000  0.18750000  0.93750000  1
  0.00000000  0.25000000  0.00000000  1
  0.00000000  0.25000000  0.06250000  1
  0.00000000  0.25000000  0.12500000  1
  0.00000000  0.25000000  0.18750000  1
  0.00000000  0.25000000  0.25000000  1
  0.00000000  0.25000000  0.31250000  1
  0.00000000  0.25000000  0.37500000  1
  0.00000000  0.25000000  0.43750000  1
  0.00000000  0.25000000  0.50000000  1
  0.00000000  0.25000000  0.56250000  1
  0.00000000  0.25000000  0.62500000  1
  0.00000000  0.25000000  0.68750000  1
  0.00000000  0.25000000  0.75000000  1
  0.00000000  0.25000000  0.81250000  1
  0.00000000  0.25000000  0.87500000  1
  0.00000000  0.25000000  0.93750000  1
  0.00000000  0.31250000  0.00000000  1
  0.00000000  0.31250000  0.06250000  1
  0.00000000  0.31250000  0.12500000  1
  0.00000000  0.31250000  0.18750000  1
  0.00000000  0.31250000  0.25000000  1
  0.00000000  0.31250000  0.31250000  1
  0.00000000  0.31250000  0.37500000  1
  0.00000000  0.31250000  0.43750000  1
  0.00000000  0.31250000  0.50000000  1
  0.00000000  0.31250000  0.56250000  1
  0.00000000  0.31250000  0.62500000  1
  0.00000000  0.31250000  0.68750000  1
  0.00000000  0.31250000  0.75000000  1
  0.00000000  0.31250000  0.81250000  1
  0.00000000  0.31250000  0.87500000  1
  0.00000000  0.31250000  0.93750000  1
  0.00000000  0.37500000  0.00000000  1
  0.00000000  0.37500000  0.06250000  1
  0.00000000  0.37500000  0.12500000  1
  0.00000000  0.37500000  0.18750000  1
  0.00000000  0.37500000  0.25000000  1
  0.00000000  0.37500000  0.31250000  1
  0.00000000  0.37500000  0.37500000  1
  0.00000000  0.37500000  0.43750000  1
  0.00000000  0.37500000  0.50000000  1
  0.00000000  0.37500000  0.56250000  1
  0.00000000  0.37500000  0.62500000  1
  0.00000000  0.37500000  0.68750000  1
  0.00000000  0.37500000  0.75000000  1
  0.00000000  0.37500000  0.81250000  1
  0.00000000  0.37500000  0.87500000  1
  0.00000000  0.37500000  0.93750000  1
  0.00000000  0.43750000  0.00000000  1
  0.00000000  0.43750000  0.06250000  1
  0.00000000  0.43750000  0.12500000  1
  0.00000000  0.43750000  0.18750000  1
  0.00000000  0.43750000  0.25000000  1
  0.00000000  0.43750000  0.31250000  1
  0.00000000  0.43750000  0.37500000  1
  0.00000000  0.43750000  0.43750000  1
  0.00000000  0.43750000  0.50000000  1
  0.00000000  0.43750000  0.56250000  1
  0.00000000  0.43750000  0.62500000  1
  0.00000000  0.43750000  0.68750000  1
  0.00000000  0.43750000  0.75000000  1
  0.00000000  0.43750000  0.81250000  1
  0.00000000  0.43750000  0.87500000  1
  0.00000000  0.43750000  0.93750000  1
  0.00000000  0.50000000  0.00000000  1
  0.00000000  0.50000000  0.06250000  1
  0.00000000  0.50000000  0.12500000  1
  0.00000000  0.50000000  0.18750000  1
  0.00000000  0.50000000  0.25000000  1
  0.00000000  0.50000000  0.31250000  1
  0.00000000  0.50000000  0.37500000  1
  0.00000000  0.50000000  0.43750000  1
  0.00000000  0.50000000  0.50000000  1
  0.00000000  0.50000000  0.56250000  1
  0.00000000  0.50000000  0.62500000  1
  0.00000000  0.50000000  0.68750000  1
  0.00000000  0.50000000  0.75000000  1
  0.00000000  0.50000000  0.81250000  1
  0.00000000  0.50000000  0.87500000  1
  0.00000000  0.50000000  0.93750000  1
  0.00000000  0.56250000  0.00000000  1
  0.00000000  0.56250000  0.06250000  1
  0.00000000  0.56250000  0.12500000  1
  0.00000000  0.56250000  0.18750000  1
  0.00000000  0.56250000  0.25000000  1
  0.00000000  0.56250000  0.31250000  1
  0.00000000  0.56250000  0.37500000  1
  0.00000000  0.56250000  0.43750000  1
  0.00000000  0.56250000  0.50000000  1
  0.00000000  0.56250000  0.56250000  1
  0.00000000  0.56250000  0.62500000  1
  0.00000000  0.56250000  0.68750000  1
  0.00000000  0.56250000  0.75000000  1
  0.00000000  0.56250000  0.81250000  1
  0.00000000  0.56250000  0.87500000  1
  0.00000000  0.56250000  0.93750000  1
  0.00000000  0.62500000  0.00000000  1
  0.00000000  0.62500000  0.06250000  1
  0.00000000  0.62500000  0.12500000  1
  0.00000000  0.62500000  0.18750000  1
  0.00000000  0.62500000  0.25000000  1
  0.00000000  0.62500000  0.31250000  1
  0.00000000  0.62500000  0.37500000  1
  0.00000000  0.62500000  0.43750000  1
  0.00000000  0.62500000  0.50000000  1
  0.00000000  0.62500000  0.56250000  1
  0.00000000  0.62500000  0.62500000  1
  0.00000000  0.62500000  0.68750000  1
  0.00000000  0.62500000  0.75000000  1
  0.00000000  0.62500000  0.81250000  1
  0.00000000  0.62500000  0.87500000  1
  0.00000000  0.62500000  0.93750000  1
  0.00000000  0.68750000  0.00000000  1
  0.00000000  0.68750000  0.06250000  1
  0.00000000  0.68750000  0.12500000  1
  0.00000000  0.68750000  0.18750000  1
  0.00000000  0.68750000  0.25000000  1
  0.00000000  0.68750000  0.31250000  1
  0.00000000  0.68750000  0.37500000  1
  0.00000000  0.68750000  0.43750000  1
  0.00000000  0.68750000  0.50000000  1
  0.00000000  0.68750000  0.56250000  1
  0.00000000  0.68750000  0.62500000  1
  0.00000000  0.68750000  0.68750000  1
  0.00000000  0.68750000  0.75000000  1
  0.00000000  0.68750000  0.81250000  1
  0.00000000  0.68750000  0.87500000  1
  0.00000000  0.68750000  0.93750000  1
  0.00000000  0.75000000  0.00000000  1
  0.00000000  0.75000000  0.06250000  1
  0.00000000  0.75000000  0.12500000  1
  0.00000000  0.75000000  0.18750000  1
  0.00000000  0.75000000  0.25000000  1
  0.00000000  0.75000000  0.31250000  1
  0.00000000  0.75000000  0.37500000  1
  0.00000000  0.75000000  0.43750000  1
  0.00000000  0.75000000  0.50000000  1
  0.00000000  0.75000000  0.56250000  1
  0.00000000  0.75000000  0.62500000  1
  0.00000000  0.75000000  0.68750000  1
  0.00000000  0.75000000  0.75000000  1
  0.00000000  0.75000000  0.81250000  1
  0.00000000  0.75000000  0.87500000  1
  0.00000000  0.75000000  0.93750000  1
  0.00000000  0.81250000  0.00000000  1
  0.00000000  0.81250000  0.06250000  1
  0.00000000  0.81250000  0.12500000  1
  0.00000000  0.81250000  0.18750000  1
  0.00000000  0.81250000  0.25000000  1
  0.00000000  0.81250000  0.31250000  1
  0.00000000  0.81250000  0.37500000  1
  0.00000000  0.81250000  0.43750000  1
  0.00000000  0.81250000  0.50000000  1
  0.00000000  0.81250000  0.56250000  1
  0.00000000  0.81250000  0.62500000  1
  0.00000000  0.81250000  0.68750000  1
  0.00000000  0.81250000  0.75000000  1
  0.00000000  0.81250000  0.81250000  1
  0.00000000  0.81250000  0.87500000  1
  0.00000000  0.81250000  0.93750000  1
  0.00000000  0.87500000  0.00000000  1
  0.00000000  0.87500000  0.06250000  1
  0.00000000  0.87500000  0.12500000  1
  0.00000000  0.87500000  0.18750000  1
  0.00000000  0.87500000  0.25000000  1
  0.00000000  0.87500000  0.31250000  1
  0.00000000  0.87500000  0.37500000  1
  0.00000000  0.87500000  0.43750000  1
  0.00000000  0.87500000  0.50000000  1
  0.00000000  0.87500000  0.56250000  1
  0.00000000  0.87500000  0.62500000  1
  0.00000000  0.87500000  0.68750000  1
  0.00000000  0.87500000  0.75000000  1
  0.00000000  0.87500000  0.81250000  1
  0.00000000  0.87500000  0.87500000  1
  0.00000000  0.87500000  0.93750000  1
  0.00000000  0.93750000  0.00000000  1
  0.00000000  0.93750000  0.06250000  1
  0.00000000  0.93750000  0.12500000  1
  0.00000000  0.93750000  0.18750000  1
  0.00000000  0.93750000  0.25000000  1
  0.00000000  0.93750000  0.31250000  1
  0.00000000  0.93750000  0.37500000  1
  0.00000000  0.93750000  0.43750000  1
  0.00000000  0.93750000  0.50000000  1
  0.00000000  0.93750000  0.56250000  1
  0.00000000  0.93750000  0.62500000  1
  0.00000000  0.93750000  0.68750000  1
  0.00000000  0.93750000  0.75000000  1
  0.00000000  0.93750000  0.81250000  1
  0.00000000  0.93750000  0.87500000  1
  0.00000000  0.93750000  0.93750000  1
  0.06250000  0.00000000  0.00000000  1
  0.06250000  0.00000000  0.06250000  1
  0.06250000  0.00000000  0.12500000  1
  0.06250000  0.00000000  0.18750000  1
  0.06250000  0.00000000  0.25000000  1
  0.06250000  0.00000000  0.31250000  1
  0.06250000  0.00000000  0.37500000  1
  0.06250000  0.00000000  0.43750000  1
  0.06250000  0.00000000  0.50000000  1
  0.06250000  0.00000000  0.56250000  1
  0.06250000  0.00000000  0.62500000  1
  0.06250000  0.00000000  0.68750000  1
  0.06250000  0.00000000  0.75000000  1
  0.06250000  0.00000000  0.81250000  1
  0.06250000  0.00000000  0.87500000  1
  0.06250000  0.00000000  0.93750000  1
  0.06250000  0.06250000  0.00000000  1
  0.06250000  0.06250000  0.06250000  1
  0.06250000  0.06250000  0.12500000  1
  0.06250000  0.06250000  0.18750000  1
  0.06250000  0.06250000  0.25000000  1
  0.06250000  0.06250000  0.31250000  1
  0.06250000  0.06250000  0.37500000  1
  0.06250000  0.06250000  0.43750000  1
  0.06250000  0.06250000  0.50000000  1
  0.06250000  0.06250000  0.56250000  1
  0.06250000  0.06250000  0.62500000  1
  0.06250000  0.06250000  0.68750000  1
  0.06250000  0.06250000  0.75000000  1
  0.06250000  0.06250000  0.81250000  1
  0.06250000  0.06250000  0.87500000  1
  0.06250000  0.06250000  0.93750000  1
  0.06250000  0.12500000  0.00000000  1
  0.06250000  0.12500000  0.06250000  1
  0.06250000  0.12500000  0.12500000  1
  0.06250000  0.12500000  0.18750000  1
  0.06250000  0.12500000  0.25000000  1
  0.06250000  0.12500000  0.31250000  1
  0.06250000  0.12500000  0.37500000  1
  0.06250000  0.12500000  0.43750000  1
  0.06250000  0.12500000  0.50000000  1
  0.06250000  0.12500000  0.56250000  1
  0.06250000  0.12500000  0.62500000  1
  0.06250000  0.12500000  0.68750000  1
  0.06250000  0.12500000  0.75000000  1
  0.06250000  0.12500000  0.81250000  1
  0.06250000  0.12500000  0.87500000  1
  0.06250000  0.12500000  0.93750000  1
  0.06250000  0.18750000  0.00000000  1
  0.06250000  0.18750000  0.06250000  1
  0.06250000  0.18750000  0.12500000  1
  0.06250000  0.18750000  0.18750000  1
  0.06250000  0.18750000  0.25000000  1
  0.06250000  0.18750000  0.31250000  1
  0.06250000  0.18750000  0.37500000  1
  0.06250000  0.18750000  0.43750000  1
  0.06250000  0.18750000  0.50000000  1
  0.06250000  0.18750000  0.56250000  1
  0.06250000  0.18750000  0.62500000  1
  0.06250000  0.18750000  0.68750000  1
  0.06250000  0.18750000  0.75000000  1
  0.06250000  0.18750000  0.81250000  1
  0.06250000  0.18750000  0.87500000  1
  0.06250000  0.18750000  0.93750000  1
  0.06250000  0.25000000  0.00000000  1
  0.06250000  0.25000000  0.06250000  1
  0.06250000  0.25000000  0.12500000  1
  0.06250000  0.25000000  0.18750000  1
  0.06250000  0.25000000  0.25000000  1
  0.06250000  0.25000000  0.31250000  1
  0.06250000  0.25000000  0.37500000  1
  0.06250000  0.25000000  0.43750000  1
  0.06250000  0.25000000  0.50000000  1
  0.06250000  0.25000000  0.56250000  1
  0.06250000  0.25000000  0.62500000  1
  0.06250000  0.25000000  0.68750000  1
  0.06250000  0.25000000  0.75000000  1
  0.06250000  0.25000000  0.81250000  1
  0.06250000  0.25000000  0.87500000  1
  0.06250000  0.25000000  0.93750000  1
  0.06250000  0.31250000  0.00000000  1
  0.06250000  0.31250000  0.06250000  1
  0.06250000  0.31250000  0.12500000  1
  0.06250000  0.31250000  0.18750000  1
  0.06250000  0.31250000  0.25000000  1
  0.06250000  0.31250000  0.31250000  1
  0.06250000  0.31250000  0.37500000  1
  0.06250000  0.31250000  0.43750000  1
  0.06250000  0.31250000  0.50000000  1
  0.06250000  0.31250000  0.56250000  1
  0.06250000  0.31250000  0.62500000  1
  0.06250000  0.31250000  0.68750000  1
  0.06250000  0.31250000  0.75000000  1
  0.06250000  0.31250000  0.81250000  1
  0.06250000  0.31250000  0.87500000  1
  0.06250000  0.31250000  0.93750000  1
  0.06250000  0.37500000  0.00000000  1
  0.06250000  0.37500000  0.06250000  1
  0.06250000  0.37500000  0.12500000  1
  0.06250000  0.37500000  0.18750000  1
  0.06250000  0.37500000  0.25000000  1
  0.06250000  0.37500000  0.31250000  1
  0.06250000  0.37500000  0.37500000  1
  0.06250000  0.37500000  0.43750000  1
  0.06250000  0.37500000  0.50000000  1
  0.06250000  0.37500000  0.56250000  1
  0.06250000  0.37500000  0.62500000  1
  0.06250000  0.37500000  0.68750000  1
  0.06250000  0.37500000  0.75000000  1
  0.06250000  0.37500000  0.81250000  1
  0.06250000  0.37500000  0.87500000  1
  0.06250000  0.37500000  0.93750000  1
  0.06250000  0.43750000  0.00000000  1
  0.06250000  0.43750000  0.06250000  1
  0.06250000  0.43750000  0.12500000  1
  0.06250000  0.43750000  0.18750000  1
  0.06250000  0.43750000  0.25000000  1
  0.06250000  0.43750000  0.31250000  1
  0.06250000  0.43750000  0.37500000  1
  0.06250000  0.43750000  0.43750000  1
  0.06250000  0.43750000  0.50000000  1
  0.06250000  0.43750000  0.56250000  1
  0.06250000  0.43750000  0.62500000  1
  0.06250000  0.43750000  0.68750000  1
  0.06250000  0.43750000  0.75000000  1
  0.06250000  0.43750000  0.81250000  1
  0.06250000  0.43750000  0.87500000  1
  0.06250000  0.43750000  0.93750000  1
  0.06250000  0.50000000  0.00000000  1
  0.06250000  0.50000000  0.06250000  1
  0.06250000  0.50000000  0.12500000  1
  0.06250000  0.50000000  0.18750000  1
  0.06250000  0.50000000  0.25000000  1
  0.06250000  0.50000000  0.31250000  1
  0.06250000  0.50000000  0.37500000  1
  0.06250000  0.50000000  0.43750000  1
  0.06250000  0.50000000  0.50000000  1
  0.06250000  0.50000000  0.56250000  1
  0.06250000  0.50000000  0.62500000  1
  0.06250000  0.50000000  0.68750000  1
  0.06250000  0.50000000  0.75000000  1
  0.06250000  0.50000000  0.81250000  1
  0.06250000  0.50000000  0.87500000  1
  0.06250000  0.50000000  0.93750000  1
  0.06250000  0.56250000  0.00000000  1
  0.06250000  0.56250000  0.06250000  1
  0.06250000  0.56250000  0.12500000  1
  0.06250000  0.56250000  0.18750000  1
  0.06250000  0.56250000  0.25000000  1
  0.06250000  0.56250000  0.31250000  1
  0.06250000  0.56250000  0.37500000  1
  0.06250000  0.56250000  0.43750000  1
  0.06250000  0.56250000  0.50000000  1
  0.06250000  0.56250000  0.56250000  1
  0.06250000  0.56250000  0.62500000  1
  0.06250000  0.56250000  0.68750000  1
  0.06250000  0.56250000  0.75000000  1
  0.06250000  0.56250000  0.81250000  1
  0.06250000  0.56250000  0.87500000  1
  0.06250000  0.56250000  0.93750000  1
  0.06250000  0.62500000  0.00000000  1
  0.06250000  0.62500000  0.06250000  1
  0.06250000  0.62500000  0.12500000  1
  0.06250000  0.62500000  0.18750000  1
  0.06250000  0.62500000  0.25000000  1
  0.06250000  0.62500000  0.31250000  1
  0.06250000  0.62500000  0.37500000  1
  0.06250000  0.62500000  0.43750000  1
  0.06250000  0.62500000  0.50000000  1
  0.06250000  0.62500000  0.56250000  1
  0.06250000  0.62500000  0.62500000  1
  0.06250000  0.62500000  0.68750000  1
  0.06250000  0.62500000  0.75000000  1
  0.06250000  0.62500000  0.81250000  1
  0.06250000  0.62500000  0.87500000  1
  0.06250000  0.62500000  0.93750000  1
  0.06250000  0.68750000  0.00000000  1
  0.06250000  0.68750000  0.06250000  1
  0.06250000  0.68750000  0.12500000  1
  0.06250000  0.68750000  0.18750000  1
  0.06250000  0.68750000  0.25000000  1
  0.06250000  0.68750000  0.31250000  1
  0.06250000  0.68750000  0.37500000  1
  0.06250000  0.68750000  0.43750000  1
  0.06250000  0.68750000  0.50000000  1
  0.06250000  0.68750000  0.56250000  1
  0.06250000  0.68750000  0.62500000  1
  0.06250000  0.68750000  0.68750000  1
  0.06250000  0.68750000  0.75000000  1
  0.06250000  0.68750000  0.81250000  1
  0.06250000  0.68750000  0.87500000  1
  0.06250000  0.68750000  0.93750000  1
  0.06250000  0.75000000  0.00000000  1
  0.06250000  0.75000000  0.06250000  1
  0.06250000  0.75000000  0.12500000  1
  0.06250000  0.75000000  0.18750000  1
  0.06250000  0.75000000  0.25000000  1
  0.06250000  0.75000000  0.31250000  1
  0.06250000  0.75000000  0.37500000  1
  0.06250000  0.75000000  0.43750000  1
  0.06250000  0.75000000  0.50000000  1
  0.06250000  0.75000000  0.56250000  1
  0.06250000  0.75000000  0.62500000  1
  0.06250000  0.75000000  0.68750000  1
  0.06250000  0.75000000  0.75000000  1
  0.06250000  0.75000000  0.81250000  1
  0.06250000  0.75000000  0.87500000  1
  0.06250000  0.75000000  0.93750000  1
  0.06250000  0.81250000  0.00000000  1
  0.06250000  0.81250000  0.06250000  1
  0.06250000  0.81250000  0.12500000  1
  0.06250000  0.81250000  0.18750000  1
  0.06250000  0.81250000  0.25000000  1
  0.06250000  0.81250000  0.31250000  1
  0.06250000  0.81250000  0.37500000  1
  0.06250000  0.81250000  0.43750000  1
  0.06250000  0.81250000  0.50000000  1
  0.06250000  0.81250000  0.56250000  1
  0.06250000  0.81250000  0.62500000  1
  0.06250000  0.81250000  0.68750000  1
  0.06250000  0.81250000  0.75000000  1
  0.06250000  0.81250000  0.81250000  1
  0.06250000  0.81250000  0.87500000  1
  0.06250000  0.81250000  0.93750000  1
  0.06250000  0.87500000  0.00000000  1
  0.06250000  0.87500000  0.06250000  1
  0.06250000  0.87500000  0.12500000  1
  0.06250000  0.87500000  0.18750000  1
  0.06250000  0.87500000  0.25000000  1
  0.06250000  0.87500000  0.31250000  1
  0.06250000  0.87500000  0.37500000  1
  0.06250000  0.87500000  0.43750000  1
  0.06250000  0.87500000  0.50000000  1
  0.06250000  0.87500000  0.56250000  1
  0.06250000  0.87500000  0.62500000  1
  0.06250000  0.87500000  0.68750000  1
  0.06250000  0.87500000  0.75000000  1
  0.06250000  0.87500000  0.81250000  1
  0.06250000  0.87500000  0.87500000  1
  0.06250000  0.87500000  0.93750000  1
  0.06250000  0.93750000  0.00000000  1
  0.06250000  0.93750000  0.06250000  1
  0.06250000  0.93750000  0.12500000  1
  0.06250000  0.93750000  0.18750000  1
  0.06250000  0.93750000  0.25000000  1
  0.06250000  0.93750000  0.31250000  1
  0.06250000  0.93750000  0.37500000  1
  0.06250000  0.93750000  0.43750000  1
  0.06250000  0.93750000  0.50000000  1
  0.06250000  0.93750000  0.56250000  1
  0.06250000  0.93750000  0.62500000  1
  0.06250000  0.93750000  0.68750000  1
  0.06250000  0.93750000  0.75000000  1
  0.06250000  0.93750000  0.81250000  1
  0.06250000  0.93750000  0.87500000  1
  0.06250000  0.93750000  0.93750000  1
  0.12500000  0.00000000  0.00000000  1
  0.12500000  0.00000000  0.06250000  1
  0.12500000  0.00000000  0.12500000  1
  0.12500000  0.00000000  0.18750000  1
  0.12500000  0.00000000  0.25000000  1
  0.12500000  0.00000000  0.31250000  1
  0.12500000  0.00000000  0.37500000  1
  0.12500000  0.00000000  0.43750000  1
  0.12500000  0.00000000  0.50000000  1
  0.12500000  0.00000000  0.56250000  1
  0.12500000  0.00000000  0.62500000  1
  0.12500000  0.00000000  0.68750000  1
  0.12500000  0.00000000  0.75000000  1
  0.12500000  0.00000000  0.81250000  1
  0.12500000  0.00000000  0.87500000  1
  0.12500000  0.00000000  0.93750000  1
  0.12500000  0.06250000  0.00000000  1
  0.12500000  0.06250000  0.06250000  1
  0.12500000  0.06250000  0.12500000  1
  0.12500000  0.06250000  0.18750000  1
  0.12500000  0.06250000  0.25000000  1
  0.12500000  0.06250000  0.31250000  1
  0.12500000  0.06250000  0.37500000  1
  0.12500000  0.06250000  0.43750000  1
  0.12500000  0.06250000  0.50000000  1
  0.12500000  0.06250000  0.56250000  1
  0.12500000  0.06250000  0.62500000  1
  0.12500000  0.06250000  0.68750000  1
  0.12500000  0.06250000  0.75000000  1
  0.12500000  0.06250000  0.81250000  1
  0.12500000  0.06250000  0.87500000  1
  0.12500000  0.06250000  0.93750000  1
  0.12500000  0.12500000  0.00000000  1
  0.12500000  0.12500000  0.06250000  1
  0.12500000  0.12500000  0.12500000  1
  0.12500000  0.12500000  0.18750000  1
  0.12500000  0.12500000  0.25000000  1
  0.12500000  0.12500000  0.31250000  1
  0.12500000  0.12500000  0.37500000  1
  0.12500000  0.12500000  0.43750000  1
  0.12500000  0.12500000  0.50000000  1
  0.12500000  0.12500000  0.56250000  1
  0.12500000  0.12500000  0.62500000  1
  0.12500000  0.12500000  0.68750000  1
  0.12500000  0.12500000  0.75000000  1
  0.12500000  0.12500000  0.81250000  1
  0.12500000  0.12500000  0.87500000  1
  0.12500000  0.12500000  0.93750000  1
  0.12500000  0.18750000  0.00000000  1
  0.12500000  0.18750000  0.06250000  1
  0.12500000  0.18750000  0.12500000  1
  0.12500000  0.18750000  0.18750000  1
  0.12500000  0.18750000  0.25000000  1
  0.12500000  0.18750000  0.31250000  1
  0.12500000  0.18750000  0.37500000  1
  0.12500000  0.18750000  0.43750000  1
  0.12500000  0.18750000  0.50000000  1
  0.12500000  0.18750000  0.56250000  1
  0.12500000  0.18750000  0.62500000  1
  0.12500000  0.18750000  0.68750000  1
  0.12500000  0.18750000  0.75000000  1
  0.12500000  0.18750000  0.81250000  1
  0.12500000  0.18750000  0.87500000  1
  0.12500000  0.18750000  0.93750000  1
  0.12500000  0.25000000  0.00000000  1
  0.12500000  0.25000000  0.06250000  1
  0.12500000  0.25000000  0.12500000  1
  0.12500000  0.25000000  0.18750000  1
  0.12500000  0.25000000  0.25000000  1
  0.12500000  0.25000000  0.31250000  1
  0.12500000  0.25000000  0.37500000  1
  0.12500000  0.25000000  0.43750000  1
  0.12500000  0.25000000  0.50000000  1
  0.12500000  0.25000000  0.56250000  1
  0.12500000  0.25000000  0.62500000  1
  0.12500000  0.25000000  0.68750000  1
  0.12500000  0.25000000  0.75000000  1
  0.12500000  0.25000000  0.81250000  1
  0.12500000  0.25000000  0.87500000  1
  0.12500000  0.25000000  0.93750000  1
  0.12500000  0.31250000  0.00000000  1
  0.12500000  0.31250000  0.06250000  1
  0.12500000  0.31250000  0.12500000  1
  0.12500000  0.31250000  0.18750000  1
  0.12500000  0.31250000  0.25000000  1
  0.12500000  0.31250000  0.31250000  1
  0.12500000  0.31250000  0.37500000  1
  0.12500000  0.31250000  0.43750000  1
  0.12500000  0.31250000  0.50000000  1
  0.12500000  0.31250000  0.56250000  1
  0.12500000  0.31250000  0.62500000  1
  0.12500000  0.31250000  0.68750000  1
  0.12500000  0.31250000  0.75000000  1
  0.12500000  0.31250000  0.81250000  1
  0.12500000  0.31250000  0.87500000  1
  0.12500000  0.31250000  0.93750000  1
  0.12500000  0.37500000  0.00000000  1
  0.12500000  0.37500000  0.06250000  1
  0.12500000  0.37500000  0.12500000  1
  0.12500000  0.37500000  0.18750000  1
  0.12500000  0.37500000  0.25000000  1
  0.12500000  0.37500000  0.31250000  1
  0.12500000  0.37500000  0.37500000  1
  0.12500000  0.37500000  0.43750000  1
  0.12500000  0.37500000  0.50000000  1
  0.12500000  0.37500000  0.56250000  1
  0.12500000  0.37500000  0.62500000  1
  0.12500000  0.37500000  0.68750000  1
  0.12500000  0.37500000  0.75000000  1
  0.12500000  0.37500000  0.81250000  1
  0.12500000  0.37500000  0.87500000  1
  0.12500000  0.37500000  0.93750000  1
  0.12500000  0.43750000  0.00000000  1
  0.12500000  0.43750000  0.06250000  1
  0.12500000  0.43750000  0.12500000  1
  0.12500000  0.43750000  0.18750000  1
  0.12500000  0.43750000  0.25000000  1
  0.12500000  0.43750000  0.31250000  1
  0.12500000  0.43750000  0.37500000  1
  0.12500000  0.43750000  0.43750000  1
  0.12500000  0.43750000  0.50000000  1
  0.12500000  0.43750000  0.56250000  1
  0.12500000  0.43750000  0.62500000  1
  0.12500000  0.43750000  0.68750000  1
  0.12500000  0.43750000  0.75000000  1
  0.12500000  0.43750000  0.81250000  1
  0.12500000  0.43750000  0.87500000  1
  0.12500000  0.43750000  0.93750000  1
  0.12500000  0.50000000  0.00000000  1
  0.12500000  0.50000000  0.06250000  1
  0.12500000  0.50000000  0.12500000  1
  0.12500000  0.50000000  0.18750000  1
  0.12500000  0.50000000  0.25000000  1
  0.12500000  0.50000000  0.31250000  1
  0.12500000  0.50000000  0.37500000  1
  0.12500000  0.50000000  0.43750000  1
  0.12500000  0.50000000  0.50000000  1
  0.12500000  0.50000000  0.56250000  1
  0.12500000  0.50000000  0.62500000  1
  0.12500000  0.50000000  0.68750000  1
  0.12500000  0.50000000  0.75000000  1
  0.12500000  0.50000000  0.81250000  1
  0.12500000  0.50000000  0.87500000  1
  0.12500000  0.50000000  0.93750000  1
  0.12500000  0.56250000  0.00000000  1
  0.12500000  0.56250000  0.06250000  1
  0.12500000  0.56250000  0.12500000  1
  0.12500000  0.56250000  0.18750000  1
  0.12500000  0.56250000  0.25000000  1
  0.12500000  0.56250000  0.31250000  1
  0.12500000  0.56250000  0.37500000  1
  0.12500000  0.56250000  0.43750000  1
  0.12500000  0.56250000  0.50000000  1
  0.12500000  0.56250000  0.56250000  1
  0.12500000  0.56250000  0.62500000  1
  0.12500000  0.56250000  0.68750000  1
  0.12500000  0.56250000  0.75000000  1
  0.12500000  0.56250000  0.81250000  1
  0.12500000  0.56250000  0.87500000  1
  0.12500000  0.56250000  0.93750000  1
  0.12500000  0.62500000  0.00000000  1
  0.12500000  0.62500000  0.06250000  1
  0.12500000  0.62500000  0.12500000  1
  0.12500000  0.62500000  0.18750000  1
  0.12500000  0.62500000  0.25000000  1
  0.12500000  0.62500000  0.31250000  1
  0.12500000  0.62500000  0.37500000  1
  0.12500000  0.62500000  0.43750000  1
  0.12500000  0.62500000  0.50000000  1
  0.12500000  0.62500000  0.56250000  1
  0.12500000  0.62500000  0.62500000  1
  0.12500000  0.62500000  0.68750000  1
  0.12500000  0.62500000  0.75000000  1
  0.12500000  0.62500000  0.81250000  1
  0.12500000  0.62500000  0.87500000  1
  0.12500000  0.62500000  0.93750000  1
  0.12500000  0.68750000  0.00000000  1
  0.12500000  0.68750000  0.06250000  1
  0.12500000  0.68750000  0.12500000  1
  0.12500000  0.68750000  0.18750000  1
  0.12500000  0.68750000  0.25000000  1
  0.12500000  0.68750000  0.31250000  1
  0.12500000  0.68750000  0.37500000  1
  0.12500000  0.68750000  0.43750000  1
  0.12500000  0.68750000  0.50000000  1
  0.12500000  0.68750000  0.56250000  1
  0.12500000  0.68750000  0.62500000  1
  0.12500000  0.68750000  0.68750000  1
  0.12500000  0.68750000  0.75000000  1
  0.12500000  0.68750000  0.81250000  1
  0.12500000  0.68750000  0.87500000  1
  0.12500000  0.68750000  0.93750000  1
  0.12500000  0.75000000  0.00000000  1
  0.12500000  0.75000000  0.06250000  1
  0.12500000  0.75000000  0.12500000  1
  0.12500000  0.75000000  0.18750000  1
  0.12500000  0.75000000  0.25000000  1
  0.12500000  0.75000000  0.31250000  1
  0.12500000  0.75000000  0.37500000  1
  0.12500000  0.75000000  0.43750000  1
  0.12500000  0.75000000  0.50000000  1
  0.12500000  0.75000000  0.56250000  1
  0.12500000  0.75000000  0.62500000  1
  0.12500000  0.75000000  0.68750000  1
  0.12500000  0.75000000  0.75000000  1
  0.12500000  0.75000000  0.81250000  1
  0.12500000  0.75000000  0.87500000  1
  0.12500000  0.75000000  0.93750000  1
  0.12500000  0.81250000  0.00000000  1
  0.12500000  0.81250000  0.06250000  1
  0.12500000  0.81250000  0.12500000  1
  0.12500000  0.81250000  0.18750000  1
  0.12500000  0.81250000  0.25000000  1
  0.12500000  0.81250000  0.31250000  1
  0.12500000  0.81250000  0.37500000  1
  0.12500000  0.81250000  0.43750000  1
  0.12500000  0.81250000  0.50000000  1
  0.12500000  0.81250000  0.56250000  1
  0.12500000  0.81250000  0.62500000  1
  0.12500000  0.81250000  0.68750000  1
  0.12500000  0.81250000  0.75000000  1
  0.12500000  0.81250000  0.81250000  1
  0.12500000  0.81250000  0.87500000  1
  0.12500000  0.81250000  0.93750000  1