--
&input
  fildyn   = 'Extr.dynsm0.300000q',
  flfrc    = 'flfrc.d',
  zasr = 'crystal'
 /
