&inputpp
  outdir     =  './tmp'
  prefix     =  'nbn'        
  seedname   =  'nbn'   
  write_amn  =  .true.
  write_mmn  =  .true.
  write_unk  =  .true.
/
