--
&inputph
  prefix   = 'nbn',
  outdir = './tmp'
  fildyn   = 'nbn.dyn.xml',
  fildvscf = 'dvscf',
  tr2_ph   =  1.0d-16
  ldisp    = .true.,
  recover = .true.
  nq1 = 8,
  nq2 = 8,
  nq3 = 8,
!  nk1 = 24,
!  nk2 = 24,
!  nk3 = 24,
 /
