   &input_interp
&control
     read_dumped_gr=.true.
     prefix='nbn',
     verbosity='high',
     calculation='phonon_frequency_grid',
    diff_start_file="./scf_dfpt.2epiq.in"
&end
&electrons
     ngauss=1,
     sigma_min=0.3,
     sigma_max=0.3,
     nsigma=1,
     ef_from_input=.false.,
    thr_compute_k=1000.0,
&end
&phonons
     read_modes=.false.,
     nq1=8,
     nq2=8,
     nq3=8,
     ph_irr_dyn_prefix='dynq',
&end
