--
&input
  fildyn   = 'dynq',
  flfrc    = 'nbn.frc',
  zasr = 'no'
 /
