--
&input
  fildyn   = 'nbn.dyn.xml',
  flfrc    = 'nbn.frc',
  zasr = 'crystal'
 /
