Ph
 &inputph
    prefix='nbn',
    amass(1)= 14.00670,
    amass(2)= 92.90638,
    fildyn='dynq',
    fildvscf='dvscf',
    outdir='../1.Wannier/tmp/',
    tr2_ph=1.0d-14,
    trans=.false.,
    epsil=.false.,
    electron_phonon='Wannier',
    dvscf_star%dir='../2.phonons/Rotated_DVSCF',
    dvscf_star%basis='cartesian',
    dvscf_star%ext='dvscf',
    ldisp=.true.,
    nq1=8,
    nq2=8,
    nq3=8,
    elph_nbnd_min=6,
    elph_nbnd_max=13,
    start_q=424,
    last_q=512,
 &end
