&control
    dump_gR=.true.,
    prefix='nbn',
  &end
  &electrons
  &end
  &phonons
    nq1=8,
    nq2=8,
    nq3=8,
  &end
